data/lp_files/pEFS/71_2.lp
\ Model foo
\ LP format - for model browsing. Use MPS format to capture full model detail.
Minimize
  z
Subject To
 allocateEach[1]: x[1,1] + x[2,1] + x[3,1] + x[4,1] = 1
 allocateEach[2]: x[1,2] + x[2,2] + x[3,2] + x[4,2] = 1
 allocateEach[3]: x[1,3] + x[2,3] + x[3,3] + x[4,3] = 1
 allocateEach[4]: x[1,4] + x[2,4] + x[3,4] + x[4,4] = 1
 allocateEach[5]: x[1,5] + x[2,5] + x[3,5] + x[4,5] = 1
 allocateEach[6]: x[1,6] + x[2,6] + x[3,6] + x[4,6] = 1
 allocateEach[7]: x[1,7] + x[2,7] + x[3,7] + x[4,7] = 1
 allocateEach[8]: x[1,8] + x[2,8] + x[3,8] + x[4,8] = 1
 allocateEach[9]: x[1,9] + x[2,9] + x[3,9] + x[4,9] = 1
 allocateEach[10]: x[1,10] + x[2,10] + x[3,10] + x[4,10] = 1
 allocateEach[11]: x[1,11] + x[2,11] + x[3,11] + x[4,11] = 1
 allocateAllCash: cashProportion[1] + cashProportion[2] + cashProportion[3]
   + cashProportion[4] = 1
 findWorstP[1,2]: z + 0.0252899919072026 cashProportion[1]
   - 0.0252899919072026 cashProportion[2] + 0.1434616940922579 x[1,1]
   + 0.086222012408956 x[1,2] + 0.037243728082007 x[1,3]
   + 0.1173961424332344 x[1,4] + 0.0648941192338818 x[1,5]
   + 0.0570036417588346 x[1,6] + 0.0439034259509037 x[1,7]
   + 0.0745886161316428 x[1,8] + 0.0865423523064472 x[1,9]
   + 0.1260284596708929 x[1,10] + 0.1374258160237389 x[1,11]
   - 0.1434616940922579 x[2,1] - 0.086222012408956 x[2,2]
   - 0.037243728082007 x[2,3] - 0.1173961424332344 x[2,4]
   - 0.0648941192338818 x[2,5] - 0.0570036417588346 x[2,6]
   - 0.0439034259509037 x[2,7] - 0.0745886161316428 x[2,8]
   - 0.0865423523064472 x[2,9] - 0.1260284596708929 x[2,10]
   - 0.1374258160237389 x[2,11] >= 0
 findWorstP[1,3]: z + 0.0252899919072026 cashProportion[1]
   - 0.0252899919072026 cashProportion[3] + 0.1434616940922579 x[1,1]
   + 0.086222012408956 x[1,2] + 0.037243728082007 x[1,3]
   + 0.1173961424332344 x[1,4] + 0.0648941192338818 x[1,5]
   + 0.0570036417588346 x[1,6] + 0.0439034259509037 x[1,7]
   + 0.0745886161316428 x[1,8] + 0.0865423523064472 x[1,9]
   + 0.1260284596708929 x[1,10] + 0.1374258160237389 x[1,11]
   - 0.1434616940922579 x[3,1] - 0.086222012408956 x[3,2]
   - 0.037243728082007 x[3,3] - 0.1173961424332344 x[3,4]
   - 0.0648941192338818 x[3,5] - 0.0570036417588346 x[3,6]
   - 0.0439034259509037 x[3,7] - 0.0745886161316428 x[3,8]
   - 0.0865423523064472 x[3,9] - 0.1260284596708929 x[3,10]
   - 0.1374258160237389 x[3,11] >= 0
 findWorstP[1,4]: z + 0.0252899919072026 cashProportion[1]
   - 0.0252899919072026 cashProportion[4] + 0.1434616940922579 x[1,1]
   + 0.086222012408956 x[1,2] + 0.037243728082007 x[1,3]
   + 0.1173961424332344 x[1,4] + 0.0648941192338818 x[1,5]
   + 0.0570036417588346 x[1,6] + 0.0439034259509037 x[1,7]
   + 0.0745886161316428 x[1,8] + 0.0865423523064472 x[1,9]
   + 0.1260284596708929 x[1,10] + 0.1374258160237389 x[1,11]
   - 0.1434616940922579 x[4,1] - 0.086222012408956 x[4,2]
   - 0.037243728082007 x[4,3] - 0.1173961424332344 x[4,4]
   - 0.0648941192338818 x[4,5] - 0.0570036417588346 x[4,6]
   - 0.0439034259509037 x[4,7] - 0.0745886161316428 x[4,8]
   - 0.0865423523064472 x[4,9] - 0.1260284596708929 x[4,10]
   - 0.1374258160237389 x[4,11] >= 0
 findWorstP[2,1]: z - 0.0303883632827536 cashProportion[1]
   + 0.0303883632827536 cashProportion[2] - 0.0789894856263042 x[1,1]
   - 0.0539697331901704 x[1,2] - 0.1244099592795932 x[1,3]
   - 0.0246145742590304 x[1,4] - 0.0790097445351593 x[1,5]
   - 0.0763963452928425 x[1,6] - 0.1029557748019692 x[1,7]
   - 0.0982962257652803 x[1,8] - 0.0260529567877474 x[1,9]
   - 0.1869086930977898 x[1,10] - 0.1180081440813598 x[1,11]
   + 0.0789894856263042 x[2,1] + 0.0539697331901704 x[2,2]
   + 0.1244099592795932 x[2,3] + 0.0246145742590304 x[2,4]
   + 0.0790097445351593 x[2,5] + 0.0763963452928425 x[2,6]
   + 0.1029557748019692 x[2,7] + 0.0982962257652803 x[2,8]
   + 0.0260529567877474 x[2,9] + 0.1869086930977898 x[2,10]
   + 0.1180081440813598 x[2,11] >= 0
 findWorstP[2,3]: z + 0.0303883632827536 cashProportion[2]
   - 0.0303883632827536 cashProportion[3] + 0.0789894856263042 x[2,1]
   + 0.0539697331901704 x[2,2] + 0.1244099592795932 x[2,3]
   + 0.0246145742590304 x[2,4] + 0.0790097445351593 x[2,5]
   + 0.0763963452928425 x[2,6] + 0.1029557748019692 x[2,7]
   + 0.0982962257652803 x[2,8] + 0.0260529567877474 x[2,9]
   + 0.1869086930977898 x[2,10] + 0.1180081440813598 x[2,11]
   - 0.0789894856263042 x[3,1] - 0.0539697331901704 x[3,2]
   - 0.1244099592795932 x[3,3] - 0.0246145742590304 x[3,4]
   - 0.0790097445351593 x[3,5] - 0.0763963452928425 x[3,6]
   - 0.1029557748019692 x[3,7] - 0.0982962257652803 x[3,8]
   - 0.0260529567877474 x[3,9] - 0.1869086930977898 x[3,10]
   - 0.1180081440813598 x[3,11] >= 0
 findWorstP[2,4]: z + 0.0303883632827536 cashProportion[2]
   - 0.0303883632827536 cashProportion[4] + 0.0789894856263042 x[2,1]
   + 0.0539697331901704 x[2,2] + 0.1244099592795932 x[2,3]
   + 0.0246145742590304 x[2,4] + 0.0790097445351593 x[2,5]
   + 0.0763963452928425 x[2,6] + 0.1029557748019692 x[2,7]
   + 0.0982962257652803 x[2,8] + 0.0260529567877474 x[2,9]
   + 0.1869086930977898 x[2,10] + 0.1180081440813598 x[2,11]
   - 0.0789894856263042 x[4,1] - 0.0539697331901704 x[4,2]
   - 0.1244099592795932 x[4,3] - 0.0246145742590304 x[4,4]
   - 0.0790097445351593 x[4,5] - 0.0763963452928425 x[4,6]
   - 0.1029557748019692 x[4,7] - 0.0982962257652803 x[4,8]
   - 0.0260529567877474 x[4,9] - 0.1869086930977898 x[4,10]
   - 0.1180081440813598 x[4,11] >= 0
 findWorstP[3,1]: z - 0.0278629144608526 cashProportion[1]
   + 0.0278629144608526 cashProportion[3] - 0.0975202006129841 x[1,1]
   - 0.1819634067056747 x[1,2] - 0.08921705210365 x[1,3]
   - 0.1435683105786199 x[1,4] - 0.1445713754992105 x[1,5]
   - 0.0816011888176836 x[1,6] - 0.0569889477105972 x[1,7]
   - 0.0876195783412278 x[1,8] - 0.0270456023033343 x[1,9]
   - 0.0189282065570725 x[1,10] - 0.0431132163090926 x[1,11]
   + 0.0975202006129841 x[3,1] + 0.1819634067056747 x[3,2]
   + 0.08921705210365 x[3,3] + 0.1435683105786199 x[3,4]
   + 0.1445713754992105 x[3,5] + 0.0816011888176836 x[3,6]
   + 0.0569889477105972 x[3,7] + 0.0876195783412278 x[3,8]
   + 0.0270456023033343 x[3,9] + 0.0189282065570725 x[3,10]
   + 0.0431132163090926 x[3,11] >= 0
 findWorstP[3,2]: z - 0.0278629144608526 cashProportion[2]
   + 0.0278629144608526 cashProportion[3] - 0.0975202006129841 x[2,1]
   - 0.1819634067056747 x[2,2] - 0.08921705210365 x[2,3]
   - 0.1435683105786199 x[2,4] - 0.1445713754992105 x[2,5]
   - 0.0816011888176836 x[2,6] - 0.0569889477105972 x[2,7]
   - 0.0876195783412278 x[2,8] - 0.0270456023033343 x[2,9]
   - 0.0189282065570725 x[2,10] - 0.0431132163090926 x[2,11]
   + 0.0975202006129841 x[3,1] + 0.1819634067056747 x[3,2]
   + 0.08921705210365 x[3,3] + 0.1435683105786199 x[3,4]
   + 0.1445713754992105 x[3,5] + 0.0816011888176836 x[3,6]
   + 0.0569889477105972 x[3,7] + 0.0876195783412278 x[3,8]
   + 0.0270456023033343 x[3,9] + 0.0189282065570725 x[3,10]
   + 0.0431132163090926 x[3,11] >= 0
 findWorstP[3,4]: z + 0.0278629144608526 cashProportion[3]
   - 0.0278629144608526 cashProportion[4] + 0.0975202006129841 x[3,1]
   + 0.1819634067056747 x[3,2] + 0.08921705210365 x[3,3]
   + 0.1435683105786199 x[3,4] + 0.1445713754992105 x[3,5]
   + 0.0816011888176836 x[3,6] + 0.0569889477105972 x[3,7]
   + 0.0876195783412278 x[3,8] + 0.0270456023033343 x[3,9]
   + 0.0189282065570725 x[3,10] + 0.0431132163090926 x[3,11]
   - 0.0975202006129841 x[4,1] - 0.1819634067056747 x[4,2]
   - 0.08921705210365 x[4,3] - 0.1435683105786199 x[4,4]
   - 0.1445713754992105 x[4,5] - 0.0816011888176836 x[4,6]
   - 0.0569889477105972 x[4,7] - 0.0876195783412278 x[4,8]
   - 0.0270456023033343 x[4,9] - 0.0189282065570725 x[4,10]
   - 0.0431132163090926 x[4,11] >= 0
 findWorstP[4,1]: z - 0.0380035469977198 cashProportion[1]
   + 0.0380035469977198 cashProportion[4] - 0.0715226754497086 x[1,1]
   - 0.0499873321510008 x[1,2] - 0.2209019508487459 x[1,3]
   - 0.1393716746896377 x[1,4] - 0.00139346338991639 x[1,5]
   - 0.1938687610843678 x[1,6] - 0.0515074740309096 x[1,7]
   - 0.0413225234355206 x[1,8] - 0.0631365594122118 x[1,9]
   - 0.054750443374715 x[1,10] - 0.074233595135546 x[1,11]
   + 0.0715226754497086 x[4,1] + 0.0499873321510008 x[4,2]
   + 0.2209019508487459 x[4,3] + 0.1393716746896377 x[4,4]
   + 0.00139346338991639 x[4,5] + 0.1938687610843678 x[4,6]
   + 0.0515074740309096 x[4,7] + 0.0413225234355206 x[4,8]
   + 0.0631365594122118 x[4,9] + 0.054750443374715 x[4,10]
   + 0.074233595135546 x[4,11] >= 0
 findWorstP[4,2]: z - 0.0380035469977198 cashProportion[2]
   + 0.0380035469977198 cashProportion[4] - 0.0715226754497086 x[2,1]
   - 0.0499873321510008 x[2,2] - 0.2209019508487459 x[2,3]
   - 0.1393716746896377 x[2,4] - 0.00139346338991639 x[2,5]
   - 0.1938687610843678 x[2,6] - 0.0515074740309096 x[2,7]
   - 0.0413225234355206 x[2,8] - 0.0631365594122118 x[2,9]
   - 0.054750443374715 x[2,10] - 0.074233595135546 x[2,11]
   + 0.0715226754497086 x[4,1] + 0.0499873321510008 x[4,2]
   + 0.2209019508487459 x[4,3] + 0.1393716746896377 x[4,4]
   + 0.00139346338991639 x[4,5] + 0.1938687610843678 x[4,6]
   + 0.0515074740309096 x[4,7] + 0.0413225234355206 x[4,8]
   + 0.0631365594122118 x[4,9] + 0.054750443374715 x[4,10]
   + 0.074233595135546 x[4,11] >= 0
 findWorstP[4,3]: z - 0.0380035469977198 cashProportion[3]
   + 0.0380035469977198 cashProportion[4] - 0.0715226754497086 x[3,1]
   - 0.0499873321510008 x[3,2] - 0.2209019508487459 x[3,3]
   - 0.1393716746896377 x[3,4] - 0.00139346338991639 x[3,5]
   - 0.1938687610843678 x[3,6] - 0.0515074740309096 x[3,7]
   - 0.0413225234355206 x[3,8] - 0.0631365594122118 x[3,9]
   - 0.054750443374715 x[3,10] - 0.074233595135546 x[3,11]
   + 0.0715226754497086 x[4,1] + 0.0499873321510008 x[4,2]
   + 0.2209019508487459 x[4,3] + 0.1393716746896377 x[4,4]
   + 0.00139346338991639 x[4,5] + 0.1938687610843678 x[4,6]
   + 0.0515074740309096 x[4,7] + 0.0413225234355206 x[4,8]
   + 0.0631365594122118 x[4,9] + 0.054750443374715 x[4,10]
   + 0.074233595135546 x[4,11] >= 0
Bounds
 z <= 1
 -infinity <= cashProportion[1] <= 1
 -infinity <= cashProportion[2] <= 1
 -infinity <= cashProportion[3] <= 1
 -infinity <= cashProportion[4] <= 1
Binaries
 x[1,1] x[1,2] x[1,3] x[1,4] x[1,5] x[1,6] x[1,7] x[1,8] x[1,9] x[1,10]
 x[1,11] x[2,1] x[2,2] x[2,3] x[2,4] x[2,5] x[2,6] x[2,7] x[2,8] x[2,9]
 x[2,10] x[2,11] x[3,1] x[3,2] x[3,3] x[3,4] x[3,5] x[3,6] x[3,7] x[3,8]
 x[3,9] x[3,10] x[3,11] x[4,1] x[4,2] x[4,3] x[4,4] x[4,5] x[4,6] x[4,7]
 x[4,8] x[4,9] x[4,10] x[4,11]
End
