data/mps_files/q3/71_2.mps
NAME foo
ROWS
 N  OBJ
 E  allocateEach[1]
 E  allocateEach[2]
 E  allocateEach[3]
 E  allocateEach[4]
 E  allocateEach[5]
 E  allocateEach[6]
 E  allocateEach[7]
 E  allocateEach[8]
 E  allocateEach[9]
 E  allocateEach[10]
 E  allocateEach[11]
 E  allocateAllCash
 G  findWorstP[1,2]
 G  findWorstP[1,3]
 G  findWorstP[1,4]
 G  findWorstP[2,1]
 G  findWorstP[2,3]
 G  findWorstP[2,4]
 G  findWorstP[3,1]
 G  findWorstP[3,2]
 G  findWorstP[3,4]
 G  findWorstP[4,1]
 G  findWorstP[4,2]
 G  findWorstP[4,3]
COLUMNS
    z         OBJ       1
    z         findWorstP[1,2]  1
    z         findWorstP[1,3]  1
    z         findWorstP[1,4]  1
    z         findWorstP[2,1]  1
    z         findWorstP[2,3]  1
    z         findWorstP[2,4]  1
    z         findWorstP[3,1]  1
    z         findWorstP[3,2]  1
    z         findWorstP[3,4]  1
    z         findWorstP[4,1]  1
    z         findWorstP[4,2]  1
    z         findWorstP[4,3]  1
    cashProportion[1]  allocateAllCash  1
    cashProportion[1]  findWorstP[1,2]  2.5289991907202589e-02
    cashProportion[1]  findWorstP[1,3]  2.5289991907202589e-02
    cashProportion[1]  findWorstP[1,4]  2.5289991907202589e-02
    cashProportion[1]  findWorstP[2,1]  -3.0388363282753596e-02
    cashProportion[1]  findWorstP[3,1]  -2.7862914460852605e-02
    cashProportion[1]  findWorstP[4,1]  -3.8003546997719788e-02
    cashProportion[2]  allocateAllCash  1
    cashProportion[2]  findWorstP[1,2]  -2.5289991907202589e-02
    cashProportion[2]  findWorstP[2,1]  3.0388363282753596e-02
    cashProportion[2]  findWorstP[2,3]  3.0388363282753596e-02
    cashProportion[2]  findWorstP[2,4]  3.0388363282753596e-02
    cashProportion[2]  findWorstP[3,2]  -2.7862914460852605e-02
    cashProportion[2]  findWorstP[4,2]  -3.8003546997719788e-02
    cashProportion[3]  allocateAllCash  1
    cashProportion[3]  findWorstP[1,3]  -2.5289991907202589e-02
    cashProportion[3]  findWorstP[2,3]  -3.0388363282753596e-02
    cashProportion[3]  findWorstP[3,1]  2.7862914460852605e-02
    cashProportion[3]  findWorstP[3,2]  2.7862914460852605e-02
    cashProportion[3]  findWorstP[3,4]  2.7862914460852605e-02
    cashProportion[3]  findWorstP[4,3]  -3.8003546997719788e-02
    cashProportion[4]  allocateAllCash  1
    cashProportion[4]  findWorstP[1,4]  -2.5289991907202589e-02
    cashProportion[4]  findWorstP[2,4]  -3.0388363282753596e-02
    cashProportion[4]  findWorstP[3,4]  -2.7862914460852605e-02
    cashProportion[4]  findWorstP[4,1]  3.8003546997719788e-02
    cashProportion[4]  findWorstP[4,2]  3.8003546997719788e-02
    cashProportion[4]  findWorstP[4,3]  3.8003546997719788e-02
    MARKER    'MARKER'                 'INTORG'
    x[1,1]    allocateEach[1]  1
    x[1,1]    findWorstP[1,2]  1.4346169409225787e-01
    x[1,1]    findWorstP[1,3]  1.4346169409225787e-01
    x[1,1]    findWorstP[1,4]  1.4346169409225787e-01
    x[1,1]    findWorstP[2,1]  -7.8989485626304173e-02
    x[1,1]    findWorstP[3,1]  -9.7520200612984109e-02
    x[1,1]    findWorstP[4,1]  -7.1522675449708625e-02
    x[1,2]    allocateEach[2]  1
    x[1,2]    findWorstP[1,2]  8.6222012408956009e-02
    x[1,2]    findWorstP[1,3]  8.6222012408956009e-02
    x[1,2]    findWorstP[1,4]  8.6222012408956009e-02
    x[1,2]    findWorstP[2,1]  -5.3969733190170385e-02
    x[1,2]    findWorstP[3,1]  -1.8196340670567471e-01
    x[1,2]    findWorstP[4,1]  -4.9987332151000756e-02
    x[1,3]    allocateEach[3]  1
    x[1,3]    findWorstP[1,2]  3.7243728082007009e-02
    x[1,3]    findWorstP[1,3]  3.7243728082007009e-02
    x[1,3]    findWorstP[1,4]  3.7243728082007009e-02
    x[1,3]    findWorstP[2,1]  -1.2440995927959320e-01
    x[1,3]    findWorstP[3,1]  -8.9217052103650024e-02
    x[1,3]    findWorstP[4,1]  -2.2090195084874586e-01
    x[1,4]    allocateEach[4]  1
    x[1,4]    findWorstP[1,2]  1.1739614243323440e-01
    x[1,4]    findWorstP[1,3]  1.1739614243323440e-01
    x[1,4]    findWorstP[1,4]  1.1739614243323440e-01
    x[1,4]    findWorstP[2,1]  -2.4614574259030408e-02
    x[1,4]    findWorstP[3,1]  -1.4356831057861985e-01
    x[1,4]    findWorstP[4,1]  -1.3937167468963771e-01
    x[1,5]    allocateEach[5]  1
    x[1,5]    findWorstP[1,2]  6.4894119233881831e-02
    x[1,5]    findWorstP[1,3]  6.4894119233881831e-02
    x[1,5]    findWorstP[1,4]  6.4894119233881831e-02
    x[1,5]    findWorstP[2,1]  -7.9009744535159340e-02
    x[1,5]    findWorstP[3,1]  -1.4457137549921054e-01
    x[1,5]    findWorstP[4,1]  -1.3934633899163921e-03
    x[1,6]    allocateEach[6]  1
    x[1,6]    findWorstP[1,2]  5.7003641758834628e-02
    x[1,6]    findWorstP[1,3]  5.7003641758834628e-02
    x[1,6]    findWorstP[1,4]  5.7003641758834628e-02
    x[1,6]    findWorstP[2,1]  -7.6396345292842532e-02
    x[1,6]    findWorstP[3,1]  -8.1601188817683648e-02
    x[1,6]    findWorstP[4,1]  -1.9386876108436785e-01
    x[1,7]    allocateEach[7]  1
    x[1,7]    findWorstP[1,2]  4.3903425950903692e-02
    x[1,7]    findWorstP[1,3]  4.3903425950903692e-02
    x[1,7]    findWorstP[1,4]  4.3903425950903692e-02
    x[1,7]    findWorstP[2,1]  -1.0295577480196917e-01
    x[1,7]    findWorstP[3,1]  -5.6988947710597190e-02
    x[1,7]    findWorstP[4,1]  -5.1507474030909550e-02
    x[1,8]    allocateEach[8]  1
    x[1,8]    findWorstP[1,2]  7.4588616131642818e-02
    x[1,8]    findWorstP[1,3]  7.4588616131642818e-02
    x[1,8]    findWorstP[1,4]  7.4588616131642818e-02
    x[1,8]    findWorstP[2,1]  -9.8296225765280285e-02
    x[1,8]    findWorstP[3,1]  -8.7619578341227813e-02
    x[1,8]    findWorstP[4,1]  -4.1322523435520640e-02
    x[1,9]    allocateEach[9]  1
    x[1,9]    findWorstP[1,2]  8.6542352306447246e-02
    x[1,9]    findWorstP[1,3]  8.6542352306447246e-02
    x[1,9]    findWorstP[1,4]  8.6542352306447246e-02
    x[1,9]    findWorstP[2,1]  -2.6052956787747411e-02
    x[1,9]    findWorstP[3,1]  -2.7045602303334259e-02
    x[1,9]    findWorstP[4,1]  -0.0631365594122118
    x[1,10]   allocateEach[10]  1
    x[1,10]   findWorstP[1,2]  1.2602845967089288e-01
    x[1,10]   findWorstP[1,3]  1.2602845967089288e-01
    x[1,10]   findWorstP[1,4]  1.2602845967089288e-01
    x[1,10]   findWorstP[2,1]  -1.8690869309778976e-01
    x[1,10]   findWorstP[3,1]  -1.8928206557072533e-02
    x[1,10]   findWorstP[4,1]  -5.4750443374714963e-02
    x[1,11]   allocateEach[11]  1
    x[1,11]   findWorstP[1,2]  1.3742581602373885e-01
    x[1,11]   findWorstP[1,3]  1.3742581602373885e-01
    x[1,11]   findWorstP[1,4]  1.3742581602373885e-01
    x[1,11]   findWorstP[2,1]  -1.1800814408135979e-01
    x[1,11]   findWorstP[3,1]  -4.3113216309092588e-02
    x[1,11]   findWorstP[4,1]  -7.4233595135545977e-02
    x[2,1]    allocateEach[1]  1
    x[2,1]    findWorstP[1,2]  -1.4346169409225787e-01
    x[2,1]    findWorstP[2,1]  7.8989485626304173e-02
    x[2,1]    findWorstP[2,3]  7.8989485626304173e-02
    x[2,1]    findWorstP[2,4]  7.8989485626304173e-02
    x[2,1]    findWorstP[3,2]  -9.7520200612984109e-02
    x[2,1]    findWorstP[4,2]  -7.1522675449708625e-02
    x[2,2]    allocateEach[2]  1
    x[2,2]    findWorstP[1,2]  -8.6222012408956009e-02
    x[2,2]    findWorstP[2,1]  5.3969733190170385e-02
    x[2,2]    findWorstP[2,3]  5.3969733190170385e-02
    x[2,2]    findWorstP[2,4]  5.3969733190170385e-02
    x[2,2]    findWorstP[3,2]  -1.8196340670567471e-01
    x[2,2]    findWorstP[4,2]  -4.9987332151000756e-02
    x[2,3]    allocateEach[3]  1
    x[2,3]    findWorstP[1,2]  -3.7243728082007009e-02
    x[2,3]    findWorstP[2,1]  1.2440995927959320e-01
    x[2,3]    findWorstP[2,3]  1.2440995927959320e-01
    x[2,3]    findWorstP[2,4]  1.2440995927959320e-01
    x[2,3]    findWorstP[3,2]  -8.9217052103650024e-02
    x[2,3]    findWorstP[4,2]  -2.2090195084874586e-01
    x[2,4]    allocateEach[4]  1
    x[2,4]    findWorstP[1,2]  -1.1739614243323440e-01
    x[2,4]    findWorstP[2,1]  2.4614574259030408e-02
    x[2,4]    findWorstP[2,3]  2.4614574259030408e-02
    x[2,4]    findWorstP[2,4]  2.4614574259030408e-02
    x[2,4]    findWorstP[3,2]  -1.4356831057861985e-01
    x[2,4]    findWorstP[4,2]  -1.3937167468963771e-01
    x[2,5]    allocateEach[5]  1
    x[2,5]    findWorstP[1,2]  -6.4894119233881831e-02
    x[2,5]    findWorstP[2,1]  7.9009744535159340e-02
    x[2,5]    findWorstP[2,3]  7.9009744535159340e-02
    x[2,5]    findWorstP[2,4]  7.9009744535159340e-02
    x[2,5]    findWorstP[3,2]  -1.4457137549921054e-01
    x[2,5]    findWorstP[4,2]  -1.3934633899163921e-03
    x[2,6]    allocateEach[6]  1
    x[2,6]    findWorstP[1,2]  -5.7003641758834628e-02
    x[2,6]    findWorstP[2,1]  7.6396345292842532e-02
    x[2,6]    findWorstP[2,3]  7.6396345292842532e-02
    x[2,6]    findWorstP[2,4]  7.6396345292842532e-02
    x[2,6]    findWorstP[3,2]  -8.1601188817683648e-02
    x[2,6]    findWorstP[4,2]  -1.9386876108436785e-01
    x[2,7]    allocateEach[7]  1
    x[2,7]    findWorstP[1,2]  -4.3903425950903692e-02
    x[2,7]    findWorstP[2,1]  1.0295577480196917e-01
    x[2,7]    findWorstP[2,3]  1.0295577480196917e-01
    x[2,7]    findWorstP[2,4]  1.0295577480196917e-01
    x[2,7]    findWorstP[3,2]  -5.6988947710597190e-02
    x[2,7]    findWorstP[4,2]  -5.1507474030909550e-02
    x[2,8]    allocateEach[8]  1
    x[2,8]    findWorstP[1,2]  -7.4588616131642818e-02
    x[2,8]    findWorstP[2,1]  9.8296225765280285e-02
    x[2,8]    findWorstP[2,3]  9.8296225765280285e-02
    x[2,8]    findWorstP[2,4]  9.8296225765280285e-02
    x[2,8]    findWorstP[3,2]  -8.7619578341227813e-02
    x[2,8]    findWorstP[4,2]  -4.1322523435520640e-02
    x[2,9]    allocateEach[9]  1
    x[2,9]    findWorstP[1,2]  -8.6542352306447246e-02
    x[2,9]    findWorstP[2,1]  2.6052956787747411e-02
    x[2,9]    findWorstP[2,3]  2.6052956787747411e-02
    x[2,9]    findWorstP[2,4]  2.6052956787747411e-02
    x[2,9]    findWorstP[3,2]  -2.7045602303334259e-02
    x[2,9]    findWorstP[4,2]  -0.0631365594122118
    x[2,10]   allocateEach[10]  1
    x[2,10]   findWorstP[1,2]  -1.2602845967089288e-01
    x[2,10]   findWorstP[2,1]  1.8690869309778976e-01
    x[2,10]   findWorstP[2,3]  1.8690869309778976e-01
    x[2,10]   findWorstP[2,4]  1.8690869309778976e-01
    x[2,10]   findWorstP[3,2]  -1.8928206557072533e-02
    x[2,10]   findWorstP[4,2]  -5.4750443374714963e-02
    x[2,11]   allocateEach[11]  1
    x[2,11]   findWorstP[1,2]  -1.3742581602373885e-01
    x[2,11]   findWorstP[2,1]  1.1800814408135979e-01
    x[2,11]   findWorstP[2,3]  1.1800814408135979e-01
    x[2,11]   findWorstP[2,4]  1.1800814408135979e-01
    x[2,11]   findWorstP[3,2]  -4.3113216309092588e-02
    x[2,11]   findWorstP[4,2]  -7.4233595135545977e-02
    x[3,1]    allocateEach[1]  1
    x[3,1]    findWorstP[1,3]  -1.4346169409225787e-01
    x[3,1]    findWorstP[2,3]  -7.8989485626304173e-02
    x[3,1]    findWorstP[3,1]  9.7520200612984109e-02
    x[3,1]    findWorstP[3,2]  9.7520200612984109e-02
    x[3,1]    findWorstP[3,4]  9.7520200612984109e-02
    x[3,1]    findWorstP[4,3]  -7.1522675449708625e-02
    x[3,2]    allocateEach[2]  1
    x[3,2]    findWorstP[1,3]  -8.6222012408956009e-02
    x[3,2]    findWorstP[2,3]  -5.3969733190170385e-02
    x[3,2]    findWorstP[3,1]  1.8196340670567471e-01
    x[3,2]    findWorstP[3,2]  1.8196340670567471e-01
    x[3,2]    findWorstP[3,4]  1.8196340670567471e-01
    x[3,2]    findWorstP[4,3]  -4.9987332151000756e-02
    x[3,3]    allocateEach[3]  1
    x[3,3]    findWorstP[1,3]  -3.7243728082007009e-02
    x[3,3]    findWorstP[2,3]  -1.2440995927959320e-01
    x[3,3]    findWorstP[3,1]  8.9217052103650024e-02
    x[3,3]    findWorstP[3,2]  8.9217052103650024e-02
    x[3,3]    findWorstP[3,4]  8.9217052103650024e-02
    x[3,3]    findWorstP[4,3]  -2.2090195084874586e-01
    x[3,4]    allocateEach[4]  1
    x[3,4]    findWorstP[1,3]  -1.1739614243323440e-01
    x[3,4]    findWorstP[2,3]  -2.4614574259030408e-02
    x[3,4]    findWorstP[3,1]  1.4356831057861985e-01
    x[3,4]    findWorstP[3,2]  1.4356831057861985e-01
    x[3,4]    findWorstP[3,4]  1.4356831057861985e-01
    x[3,4]    findWorstP[4,3]  -1.3937167468963771e-01
    x[3,5]    allocateEach[5]  1
    x[3,5]    findWorstP[1,3]  -6.4894119233881831e-02
    x[3,5]    findWorstP[2,3]  -7.9009744535159340e-02
    x[3,5]    findWorstP[3,1]  1.4457137549921054e-01
    x[3,5]    findWorstP[3,2]  1.4457137549921054e-01
    x[3,5]    findWorstP[3,4]  1.4457137549921054e-01
    x[3,5]    findWorstP[4,3]  -1.3934633899163921e-03
    x[3,6]    allocateEach[6]  1
    x[3,6]    findWorstP[1,3]  -5.7003641758834628e-02
    x[3,6]    findWorstP[2,3]  -7.6396345292842532e-02
    x[3,6]    findWorstP[3,1]  8.1601188817683648e-02
    x[3,6]    findWorstP[3,2]  8.1601188817683648e-02
    x[3,6]    findWorstP[3,4]  8.1601188817683648e-02
    x[3,6]    findWorstP[4,3]  -1.9386876108436785e-01
    x[3,7]    allocateEach[7]  1
    x[3,7]    findWorstP[1,3]  -4.3903425950903692e-02
    x[3,7]    findWorstP[2,3]  -1.0295577480196917e-01
    x[3,7]    findWorstP[3,1]  5.6988947710597190e-02
    x[3,7]    findWorstP[3,2]  5.6988947710597190e-02
    x[3,7]    findWorstP[3,4]  5.6988947710597190e-02
    x[3,7]    findWorstP[4,3]  -5.1507474030909550e-02
    x[3,8]    allocateEach[8]  1
    x[3,8]    findWorstP[1,3]  -7.4588616131642818e-02
    x[3,8]    findWorstP[2,3]  -9.8296225765280285e-02
    x[3,8]    findWorstP[3,1]  8.7619578341227813e-02
    x[3,8]    findWorstP[3,2]  8.7619578341227813e-02
    x[3,8]    findWorstP[3,4]  8.7619578341227813e-02
    x[3,8]    findWorstP[4,3]  -4.1322523435520640e-02
    x[3,9]    allocateEach[9]  1
    x[3,9]    findWorstP[1,3]  -8.6542352306447246e-02
    x[3,9]    findWorstP[2,3]  -2.6052956787747411e-02
    x[3,9]    findWorstP[3,1]  2.7045602303334259e-02
    x[3,9]    findWorstP[3,2]  2.7045602303334259e-02
    x[3,9]    findWorstP[3,4]  2.7045602303334259e-02
    x[3,9]    findWorstP[4,3]  -0.0631365594122118
    x[3,10]   allocateEach[10]  1
    x[3,10]   findWorstP[1,3]  -1.2602845967089288e-01
    x[3,10]   findWorstP[2,3]  -1.8690869309778976e-01
    x[3,10]   findWorstP[3,1]  1.8928206557072533e-02
    x[3,10]   findWorstP[3,2]  1.8928206557072533e-02
    x[3,10]   findWorstP[3,4]  1.8928206557072533e-02
    x[3,10]   findWorstP[4,3]  -5.4750443374714963e-02
    x[3,11]   allocateEach[11]  1
    x[3,11]   findWorstP[1,3]  -1.3742581602373885e-01
    x[3,11]   findWorstP[2,3]  -1.1800814408135979e-01
    x[3,11]   findWorstP[3,1]  4.3113216309092588e-02
    x[3,11]   findWorstP[3,2]  4.3113216309092588e-02
    x[3,11]   findWorstP[3,4]  4.3113216309092588e-02
    x[3,11]   findWorstP[4,3]  -7.4233595135545977e-02
    x[4,1]    allocateEach[1]  1
    x[4,1]    findWorstP[1,4]  -1.4346169409225787e-01
    x[4,1]    findWorstP[2,4]  -7.8989485626304173e-02
    x[4,1]    findWorstP[3,4]  -9.7520200612984109e-02
    x[4,1]    findWorstP[4,1]  7.1522675449708625e-02
    x[4,1]    findWorstP[4,2]  7.1522675449708625e-02
    x[4,1]    findWorstP[4,3]  7.1522675449708625e-02
    x[4,2]    allocateEach[2]  1
    x[4,2]    findWorstP[1,4]  -8.6222012408956009e-02
    x[4,2]    findWorstP[2,4]  -5.3969733190170385e-02
    x[4,2]    findWorstP[3,4]  -1.8196340670567471e-01
    x[4,2]    findWorstP[4,1]  4.9987332151000756e-02
    x[4,2]    findWorstP[4,2]  4.9987332151000756e-02
    x[4,2]    findWorstP[4,3]  4.9987332151000756e-02
    x[4,3]    allocateEach[3]  1
    x[4,3]    findWorstP[1,4]  -3.7243728082007009e-02
    x[4,3]    findWorstP[2,4]  -1.2440995927959320e-01
    x[4,3]    findWorstP[3,4]  -8.9217052103650024e-02
    x[4,3]    findWorstP[4,1]  2.2090195084874586e-01
    x[4,3]    findWorstP[4,2]  2.2090195084874586e-01
    x[4,3]    findWorstP[4,3]  2.2090195084874586e-01
    x[4,4]    allocateEach[4]  1
    x[4,4]    findWorstP[1,4]  -1.1739614243323440e-01
    x[4,4]    findWorstP[2,4]  -2.4614574259030408e-02
    x[4,4]    findWorstP[3,4]  -1.4356831057861985e-01
    x[4,4]    findWorstP[4,1]  1.3937167468963771e-01
    x[4,4]    findWorstP[4,2]  1.3937167468963771e-01
    x[4,4]    findWorstP[4,3]  1.3937167468963771e-01
    x[4,5]    allocateEach[5]  1
    x[4,5]    findWorstP[1,4]  -6.4894119233881831e-02
    x[4,5]    findWorstP[2,4]  -7.9009744535159340e-02
    x[4,5]    findWorstP[3,4]  -1.4457137549921054e-01
    x[4,5]    findWorstP[4,1]  1.3934633899163921e-03
    x[4,5]    findWorstP[4,2]  1.3934633899163921e-03
    x[4,5]    findWorstP[4,3]  1.3934633899163921e-03
    x[4,6]    allocateEach[6]  1
    x[4,6]    findWorstP[1,4]  -5.7003641758834628e-02
    x[4,6]    findWorstP[2,4]  -7.6396345292842532e-02
    x[4,6]    findWorstP[3,4]  -8.1601188817683648e-02
    x[4,6]    findWorstP[4,1]  1.9386876108436785e-01
    x[4,6]    findWorstP[4,2]  1.9386876108436785e-01
    x[4,6]    findWorstP[4,3]  1.9386876108436785e-01
    x[4,7]    allocateEach[7]  1
    x[4,7]    findWorstP[1,4]  -4.3903425950903692e-02
    x[4,7]    findWorstP[2,4]  -1.0295577480196917e-01
    x[4,7]    findWorstP[3,4]  -5.6988947710597190e-02
    x[4,7]    findWorstP[4,1]  5.1507474030909550e-02
    x[4,7]    findWorstP[4,2]  5.1507474030909550e-02
    x[4,7]    findWorstP[4,3]  5.1507474030909550e-02
    x[4,8]    allocateEach[8]  1
    x[4,8]    findWorstP[1,4]  -7.4588616131642818e-02
    x[4,8]    findWorstP[2,4]  -9.8296225765280285e-02
    x[4,8]    findWorstP[3,4]  -8.7619578341227813e-02
    x[4,8]    findWorstP[4,1]  4.1322523435520640e-02
    x[4,8]    findWorstP[4,2]  4.1322523435520640e-02
    x[4,8]    findWorstP[4,3]  4.1322523435520640e-02
    x[4,9]    allocateEach[9]  1
    x[4,9]    findWorstP[1,4]  -8.6542352306447246e-02
    x[4,9]    findWorstP[2,4]  -2.6052956787747411e-02
    x[4,9]    findWorstP[3,4]  -2.7045602303334259e-02
    x[4,9]    findWorstP[4,1]  0.0631365594122118
    x[4,9]    findWorstP[4,2]  0.0631365594122118
    x[4,9]    findWorstP[4,3]  0.0631365594122118
    x[4,10]   allocateEach[10]  1
    x[4,10]   findWorstP[1,4]  -1.2602845967089288e-01
    x[4,10]   findWorstP[2,4]  -1.8690869309778976e-01
    x[4,10]   findWorstP[3,4]  -1.8928206557072533e-02
    x[4,10]   findWorstP[4,1]  5.4750443374714963e-02
    x[4,10]   findWorstP[4,2]  5.4750443374714963e-02
    x[4,10]   findWorstP[4,3]  5.4750443374714963e-02
    x[4,11]   allocateEach[11]  1
    x[4,11]   findWorstP[1,4]  -1.3742581602373885e-01
    x[4,11]   findWorstP[2,4]  -1.1800814408135979e-01
    x[4,11]   findWorstP[3,4]  -4.3113216309092588e-02
    x[4,11]   findWorstP[4,1]  7.4233595135545977e-02
    x[4,11]   findWorstP[4,2]  7.4233595135545977e-02
    x[4,11]   findWorstP[4,3]  7.4233595135545977e-02
    MARKER    'MARKER'                 'INTEND'
RHS
    RHS1      allocateEach[1]  1
    RHS1      allocateEach[2]  1
    RHS1      allocateEach[3]  1
    RHS1      allocateEach[4]  1
    RHS1      allocateEach[5]  1
    RHS1      allocateEach[6]  1
    RHS1      allocateEach[7]  1
    RHS1      allocateEach[8]  1
    RHS1      allocateEach[9]  1
    RHS1      allocateEach[10]  1
    RHS1      allocateEach[11]  1
    RHS1      allocateAllCash  1
BOUNDS
 UP BND1      z         1
 MI BND1      cashProportion[1]
 UP BND1      cashProportion[1]  1
 MI BND1      cashProportion[2]
 UP BND1      cashProportion[2]  1
 MI BND1      cashProportion[3]
 UP BND1      cashProportion[3]  1
 MI BND1      cashProportion[4]
 UP BND1      cashProportion[4]  1
 BV BND1      x[1,1]  
 BV BND1      x[1,2]  
 BV BND1      x[1,3]  
 BV BND1      x[1,4]  
 BV BND1      x[1,5]  
 BV BND1      x[1,6]  
 BV BND1      x[1,7]  
 BV BND1      x[1,8]  
 BV BND1      x[1,9]  
 BV BND1      x[1,10] 
 BV BND1      x[1,11] 
 BV BND1      x[2,1]  
 BV BND1      x[2,2]  
 BV BND1      x[2,3]  
 BV BND1      x[2,4]  
 BV BND1      x[2,5]  
 BV BND1      x[2,6]  
 BV BND1      x[2,7]  
 BV BND1      x[2,8]  
 BV BND1      x[2,9]  
 BV BND1      x[2,10] 
 BV BND1      x[2,11] 
 BV BND1      x[3,1]  
 BV BND1      x[3,2]  
 BV BND1      x[3,3]  
 BV BND1      x[3,4]  
 BV BND1      x[3,5]  
 BV BND1      x[3,6]  
 BV BND1      x[3,7]  
 BV BND1      x[3,8]  
 BV BND1      x[3,9]  
 BV BND1      x[3,10] 
 BV BND1      x[3,11] 
 BV BND1      x[4,1]  
 BV BND1      x[4,2]  
 BV BND1      x[4,3]  
 BV BND1      x[4,4]  
 BV BND1      x[4,5]  
 BV BND1      x[4,6]  
 BV BND1      x[4,7]  
 BV BND1      x[4,8]  
 BV BND1      x[4,9]  
 BV BND1      x[4,10] 
 BV BND1      x[4,11] 
ENDATA
